&projwfc
prefix = 'NbS2',
outdir = './tmp',
lsym = .false.,
filproj = 'NbS2.proj',
/
