 &CONTROL
       calculation = 'scf',
      restart_mode = 'from_scratch',
        pseudo_dir = '..',
            outdir = './tmp/',
            prefix = 'NbS2',
         verbosity = 'high',
 /
 &SYSTEM
             ibrav = 4,
		 a = 3.2812,
		 c = 13,
               nat = 3,
              ntyp = 2,
       occupations = 'smearing',
          smearing = 'methfessel-paxton',
           degauss = 0.02,
           ecutwfc = 40,
           ecutrho = 400,
              nbnd = 30,
 /
 &ELECTRONS
          conv_thr = 1.0d-8,
       mixing_beta = 0.7,
 /
ATOMIC_SPECIES
Nb 92.906 Nb.pz-spn-kjpaw_psl.1.0.0.UPF
S 32.065 S.pz-n-kjpaw_psl.0.1.UPF
ATOMIC_POSITIONS (crystal)
S             0.3333333330        0.6666666660        0.3692820601
Nb            0.0000000000        0.0000000000        0.2500000000
S             0.3333333330        0.6666666660        0.1307179399
K_POINTS (automatic)
12 12 1 0 0 0
