 &CONTROL
       calculation = 'scf',
      restart_mode = 'from_scratch',
        pseudo_dir = '..',
            outdir = './tmp/',
            prefix = 'NbS2',
         verbosity = 'high',
 /
 &SYSTEM
             ibrav = 4,
		 a = 3.418,
		 c = 40,
               nat = 3,
              ntyp = 2,
       occupations = 'smearing',
          smearing = 'methfessel-paxton',
           degauss = 0.02,
           ecutwfc = 60,
           ecutrho = 400,
              nbnd = 25,
 /
 &ELECTRONS
          conv_thr = 1.0d-8,
       mixing_beta = 0.7,
 /
ATOMIC_SPECIES
Nb 92.906 Nb.pz-spn-kjpaw_psl.1.0.0.UPF
S 32.065 S.pz-n-kjpaw_psl.0.1.UPF
ATOMIC_POSITIONS (crystal)
S        0.333333333   0.666666666   0.3682
Nb       0.000000000   0.000000000   0.250000000
S        0.333333333   0.666666666   0.1318
K_POINTS (automatic)
4 4 1 0 0 0
