&bands
outdir = './tmp',
prefix = 'NbS2_bi',
filband = 'NbS2_bi.bands'
/
