 &CONTROL
       calculation = 'vc-relax',
      restart_mode = 'from_scratch',
        pseudo_dir = '..',
            outdir = './tmp/',
            prefix = 'NbS2_bi',
         verbosity = 'high',
         forc_conv_thr = 1.0d-5,
 /
 &SYSTEM
             ibrav = 4,
		 a = 3.2812,
		 c = 13,
               nat = 6,
              ntyp = 2,
       occupations = 'smearing',
          smearing = 'methfessel-paxton',
           degauss = 0.02,
           ecutwfc = 40,
           ecutrho = 400,
              nbnd = 60,
 /
 &ELECTRONS
          conv_thr = 1.0d-8,
       mixing_beta = 0.7,
 /
 &IONS
 ion_dynamics='bfgs',
 /
 &CELL
 cell_dynamics='bfgs',
 press=0.0,
 press_conv_thr=0.5,
 /
ATOMIC_SPECIES
Nb 92.906 Nb.pz-spn-kjpaw_psl.1.0.0.UPF
S 32.065 S.pz-n-kjpaw_psl.0.1.UPF
ATOMIC_POSITIONS (crystal)
S	0.3333333333	0.6666666666	0.376903076923077
Nb	0.0000000000	0.0000000000	0.254788153846154
S	0.3333333333	0.6666666660	0.134324846153846
S	0.6666666666	0.3333333333	0.643901153846154
Nb	0.0000000000	0.0000000000	0.764365769230769
S	0.6666666666	0.3333333333	0.884829076923077
K_POINTS (automatic)
12 12 1 0 0 0
