&bands
outdir = './tmp',
prefix = 'NbS2',
filband = 'NbS2.bands'
/
